; benchmark generated from python API
(set-info :status unknown)
(declare-datatypes ((IntState 0)) (((Mk1 (val1 Int)) (Mk2 (val2 Int)))))
 (declare-fun c_main_~n~22 () Int)
(declare-fun c_main_~f1~22 () Int)
(declare-fun |c_main_#t~ret12| () Int)
(declare-fun |c_main_#t~short13| () Bool)
(assert
 (let (($x144 (exists ((v_nnf_60_st IntState) (val!133 Int) )(exists ((v_nnf_58_st IntState) (val!134 Int) )(exists ((v_nnf_59_st IntState) (val!135 Int) )(let (($x102 (<= c_main_~n~22 2)))
 (let ((?x56 (val2 v_nnf_59_st)))
 (let ((?x59 (* 2 ?x56)))
 (let ((?x94 (val2 v_nnf_58_st)))
 (let ((?x124 (* 2 ?x94)))
 (let ((?x101 (val2 v_nnf_60_st)))
 (let ((?x171 (* 2 ?x101)))
 (let (($x104 (and (<= (+ ?x171 ?x124 ?x59 1) |c_main_#t~ret12|) (<= c_main_~f1~22 ?x94) (<= ?x94 ?x101) (<= ?x101 ?x56) $x102)))
 (let (($x52 (not (= v_nnf_59_st (Mk1 val!135)))))
 (let (($x46 (not (= v_nnf_58_st (Mk1 val!134)))))
 (let (($x19 (not (= v_nnf_60_st (Mk1 val!133)))))
 (and $x19 $x46 $x52 $x104)))))))))))))
 )
 )
 ))
 (let (($x79 (exists ((v_nnf_60 Int) )(exists ((v_nnf_58 Int) )(exists ((v_nnf_59 Int) )(let (($x102 (<= c_main_~n~22 2)))
 (let (($x118 (<= (+ (* 2 v_nnf_60) (* 2 v_nnf_58) (* 2 v_nnf_59) 1) |c_main_#t~ret12|)))
 (and $x118 (<= c_main_~f1~22 v_nnf_58) (<= v_nnf_58 v_nnf_60) (<= v_nnf_60 v_nnf_59) $x102))))
 )
 )
 ))
 (let (($x92 (= |c_main_#t~short13| (= |c_main_#t~ret12| c_main_~n~22))))
 (and (and $x92 $x79) (not $x144))))))
(check-sat)
